cpu-bind=MASK - n2lcn0129, task  0  0 [742165]: mask |--------|--------||--------|--------||--------|--------||--------|--------||||--------|--------||--------|--------||--------|--------||BBBB----|--------|  set
started at Fri Mar 17 12:18:50 CET 2023
Timecheck 10015677.847910317
Set parameter TokenServer to value "license3.uni-paderborn.de"
Warning: Gurobi version mismatch between Python 10.0.1 and C library 10.0.0
Timecheck 10015677.851667335
Timecheck 10015677.851885406
Timecheck 10015677.851919627
Timecheck 10015677.851941086


####################################################################################################
Solve scenario sce_5_26_3 with free vessel operation using the arc flow model
Vessels cannot omit ports, Demands can be rejected
####################################################################################################
Data preprocessing, load /upb/departments/pc2/groups/hpc-prf-winf4/dwetzel/SILSRP/inst_final/sce_5_26_3
and create additional sets and parameters
	|- Read vessel information, number of vessels:	12
	|- Read node information, number of nodes:		557
	|- Read arc information
		|- Number of sailing arcs:			3267
		|- Number of transshipment arcs:	1079
	|- Read container information
		|- Number of demands:		1704
		|- Number of empties (+/-):	260/226
	|- Create additional sets and parameters

Data preprocessing took 	00:00:01.165
####################################################################################################
Create linear model
Set parameter Threads to value 4
	|- Create variables, took	00:00:01.983
	|- Create objective, took	00:00:01.281
	|- Create constraints, took	00:00:05.182
	|- Load heuristic start

Creating model took	00:00:08.467
####################################################################################################
Fix start solution

Set parameter TimeLimit to value 6.7182577441534027e+04
Gurobi Optimizer version 10.0.0 build v10.0.0rc2 (linux64)

CPU model: AMD EPYC 7763 64-Core Processor, instruction set [SSE2|AVX|AVX2]
Thread count: 128 physical cores, 128 logical processors, using up to 4 threads

Optimize a model with 92538 rows, 477524 columns and 1589830 nonzeros
Model fingerprint: 0x5265d94a
Variable types: 436072 continuous, 41452 integer (41452 binary)
Coefficient statistics:
  Matrix range     [1e+00, 3e+05]
  Objective range  [1e+00, 1e+00]
  Bounds range     [1e+00, 3e+02]
  RHS range        [1e+00, 8e+07]
Presolve removed 81598 rows and 443575 columns
Presolve time: 1.18s
Presolved: 10940 rows, 33949 columns, 90473 nonzeros
Variable types: 32531 continuous, 1418 integer (1413 binary)

Root relaxation: objective 3.110290e+07, 3108 iterations, 0.05 seconds (0.03 work units)

    Nodes    |    Current Node    |     Objective Bounds      |     Work
 Expl Unexpl |  Obj  Depth IntInf | Incumbent    BestBd   Gap | It/Node Time

*    0     0               0    3.110290e+07 3.1103e+07  0.00%     -    1s

Explored 1 nodes (3108 simplex iterations) in 1.48 seconds (1.37 work units)
Thread count was 4 (of 128 available processors)

Solution count 1: 3.11029e+07 

Optimal solution found (tolerance 1.00e-04)
Best objective 3.110289500000e+07, best bound 3.110289500000e+07, gap 0.0000%

Fixing start solution took	00:00:10.136
####################################################################################################
####################################################################################################
Solve optimization model

Set parameter TimeLimit to value 6.7181053791131824e+04
Gurobi Optimizer version 10.0.0 build v10.0.0rc2 (linux64)

CPU model: AMD EPYC 7763 64-Core Processor, instruction set [SSE2|AVX|AVX2]
Thread count: 128 physical cores, 128 logical processors, using up to 4 threads

Optimize a model with 91982 rows, 477524 columns and 1589274 nonzeros
Model fingerprint: 0x5e38a729
Variable types: 436072 continuous, 41452 integer (41452 binary)
Coefficient statistics:
  Matrix range     [1e+00, 3e+05]
  Objective range  [1e+00, 1e+00]
  Bounds range     [1e+00, 3e+02]
  RHS range        [1e+00, 8e+07]

Loaded MIP start from previous solve with objective 3.11029e+07

Presolve removed 8769 rows and 16648 columns (presolve time = 5s) ...
Presolve removed 8890 rows and 16654 columns
Presolve time: 5.31s
Presolved: 83092 rows, 460870 columns, 1323758 nonzeros
Variable types: 422756 continuous, 38114 integer (38113 binary)
Deterministic concurrent LP optimizer: primal simplex, dual simplex, and barrier
Showing barrier log only...

Root barrier log...

Elapsed ordering time = 5s
Ordering time: 7.76s

Barrier statistics:
 AA' NZ     : 1.215e+06
 Factor NZ  : 2.276e+07 (roughly 400 MB of memory)
 Factor Ops : 2.496e+10 (less than 1 second per iteration)
 Threads    : 2

                  Objective                Residual
Iter       Primal          Dual         Primal    Dual     Compl     Time
   0   3.09802379e+16 -1.65447342e+15  1.99e+10 6.77e+03  1.11e+13    16s
   1   7.58678710e+15 -3.66007985e+14  4.80e+09 3.42e+02  2.70e+12    16s
   2   6.53063116e+14 -8.93557734e+13  4.12e+08 7.42e-10  2.33e+11    17s
   3   7.51532373e+13 -1.74618835e+13  4.74e+07 2.12e-09  2.70e+10    18s
   4   1.09362405e+13 -3.63601264e+12  6.88e+06 2.01e-09  3.96e+09    18s
   5   1.87312489e+12 -1.01404075e+12  1.18e+06 6.11e-10  6.86e+08    19s
   6   2.28172682e+11 -4.20183919e+11  1.43e+05 7.28e-10  8.45e+07    20s
   7   3.91667278e+10 -2.88440501e+11  2.44e+04 1.11e-09  1.47e+07    21s
   8   4.49182844e+09 -2.24691204e+11  2.73e+03 9.90e-10  1.85e+06    22s
   9   8.84049099e+08 -1.30382141e+11  4.62e+02 2.50e-09  3.80e+05    23s
  10   3.53119997e+08 -6.02170354e+10  1.46e+02 1.05e-09  1.26e+05    23s
  11   2.07483042e+08 -3.47848954e+10  6.66e+01 2.02e-09  6.17e+04    24s
  12   1.23647624e+08 -2.06908521e+10  2.61e+01 8.73e-09  3.11e+04    25s
  13   8.47578977e+07 -8.94322466e+09  9.29e+00 8.85e-09  1.24e+04    25s
  14   6.39704173e+07 -2.57518550e+09  2.39e+00 5.36e-09  3.31e+03    26s
  15   5.39015711e+07 -7.57797070e+08  5.88e-01 3.30e-09  9.33e+02    27s
  16   4.74436633e+07 -2.56132474e+08  1.47e-01 2.55e-09  3.35e+02    28s
  17   4.36631291e+07 -1.23540499e+08  7.66e-02 1.69e-09  1.83e+02    29s
  18   4.04245943e+07 -7.99308609e+07  4.65e-02 2.66e-09  1.31e+02    29s
  19   3.80692332e+07 -4.39447708e+07  3.04e-02 1.37e-09  8.94e+01    30s
  20   3.62474787e+07 -2.33983290e+07  2.16e-02 1.33e-09  6.50e+01    30s
  21   3.35051694e+07 -2.67953205e+06  9.78e-03 3.39e-09  3.93e+01    31s
  22   3.15229255e+07  7.64571321e+06  5.25e-03 3.73e-09  2.59e+01    32s
  23   3.01336612e+07  1.31318600e+07  3.35e-03 4.49e-09  1.84e+01    33s
  24   2.87786122e+07  1.75432934e+07  1.93e-03 2.37e-09  1.22e+01    34s
  25   2.76331963e+07  2.02147679e+07  1.03e-03 6.50e-09  8.04e+00    34s
  26   2.69784922e+07  2.19817172e+07  6.58e-04 9.54e-09  5.41e+00    35s
  27   2.62657921e+07  2.33562931e+07  3.33e-04 1.49e-08  3.15e+00    36s
  28   2.58546631e+07  2.39577980e+07  1.74e-04 9.74e-09  2.05e+00    37s
  29   2.55952846e+07  2.42573857e+07  9.08e-05 2.49e-08  1.45e+00    37s
  30   2.54867967e+07  2.45902128e+07  6.02e-05 1.08e-08  9.71e-01    38s
  31   2.54197674e+07  2.47385702e+07  4.31e-05 1.25e-08  7.37e-01    39s
  32   2.53629981e+07  2.48984585e+07  2.90e-05 1.23e-08  5.03e-01    39s
  33   2.53150819e+07  2.50495285e+07  1.80e-05 2.61e-08  2.88e-01    40s
  34   2.52617883e+07  2.51457416e+07  6.46e-06 1.82e-08  1.26e-01    41s
  35   2.52569149e+07  2.51830895e+07  5.64e-06 1.37e-08  8.00e-02    42s
  36   2.52398846e+07  2.52184922e+07  2.19e-06 1.09e-07  2.32e-02    42s
  37   2.52306840e+07  2.52251956e+07  5.54e-07 2.15e-08  5.96e-03    43s
  38   2.52295163e+07  2.52262818e+07  3.14e-07 7.81e-08  3.51e-03    44s
  39   2.52283296e+07  2.52276360e+07  4.26e-08 7.60e-08  7.52e-04    45s
  40   2.52281851e+07  2.52280909e+07  8.42e-08 1.03e-07  1.02e-04    46s
  41   2.52281660e+07  2.52281478e+07  1.84e-08 2.99e-05  1.98e-05    46s
  42   2.52281605e+07  2.52281600e+07  2.39e-08 1.09e-04  5.02e-07    47s
  43   2.52281602e+07  2.52281602e+07  8.35e-09 1.36e-04  1.69e-09    48s

Barrier solved model in 43 iterations and 47.78 seconds (56.33 work units)
Optimal objective 2.52281602e+07


Root crossover log...

   70462 DPushes remaining with DInf 0.0000000e+00                48s
       0 DPushes remaining with DInf 0.0000000e+00                49s

    6138 PPushes remaining with PInf 0.0000000e+00                49s
     359 PPushes remaining with PInf 0.0000000e+00                50s
       0 PPushes remaining with PInf 0.0000000e+00                50s

  Push phase complete: Pinf 0.0000000e+00, Dinf 1.9841161e-07     50s


Root simplex log...

Iteration    Objective       Primal Inf.    Dual Inf.      Time
   75050    2.5228160e+07   0.000000e+00   0.000000e+00     50s
Concurrent spin time: 14.41s (can be avoided by choosing Method=3)

Solved with barrier
   75050    2.5228160e+07   0.000000e+00   0.000000e+00     65s

Root relaxation: objective 2.522816e+07, 75050 iterations, 59.17 seconds (55.43 work units)
Total elapsed time = 66.38s
Total elapsed time = 70.49s

    Nodes    |    Current Node    |     Objective Bounds      |     Work
 Expl Unexpl |  Obj  Depth IntInf | Incumbent    BestBd   Gap | It/Node Time

     0     0 2.5228e+07    0 5223 3.1103e+07 2.5228e+07  18.9%     -   72s
     0     0 2.5815e+07    0 4589 3.1103e+07 2.5815e+07  17.0%     - 1358s
     0     0 2.5815e+07    0 4644 3.1103e+07 2.5815e+07  17.0%     - 1405s
     0     0 2.5859e+07    0 4723 3.1103e+07 2.5859e+07  16.9%     - 2388s
     0     0 2.5859e+07    0 4574 3.1103e+07 2.5859e+07  16.9%     - 2724s
     0     0 2.5879e+07    0 4715 3.1103e+07 2.5879e+07  16.8%     - 3437s
     0     0 2.5879e+07    0 4627 3.1103e+07 2.5879e+07  16.8%     - 3496s
     0     0 2.5880e+07    0 4723 3.1103e+07 2.5880e+07  16.8%     - 3837s
     0     0 2.5880e+07    0 4719 3.1103e+07 2.5880e+07  16.8%     - 3852s
     0     0 2.5880e+07    0 4716 3.1103e+07 2.5880e+07  16.8%     - 4196s
     0     0 2.5880e+07    0 4693 3.1103e+07 2.5880e+07  16.8%     - 4212s
     0     0 2.6103e+07    0 4765 3.1103e+07 2.6103e+07  16.1%     - 9644s
     0     0 2.6103e+07    0 4810 3.1103e+07 2.6103e+07  16.1%     - 9822s
     0     0 2.6252e+07    0 4969 3.1103e+07 2.6252e+07  15.6%     - 13006s
     0     0 2.6252e+07    0 4923 3.1103e+07 2.6252e+07  15.6%     - 13163s
     0     0 2.6295e+07    0 5004 3.1103e+07 2.6295e+07  15.5%     - 15218s
     0     0 2.6295e+07    0 4989 3.1103e+07 2.6295e+07  15.5%     - 15455s
     0     0 2.6307e+07    0 5101 3.1103e+07 2.6307e+07  15.4%     - 16930s
     0     0 2.6307e+07    0 5029 3.1103e+07 2.6307e+07  15.4%     - 16996s
     0     0 2.6310e+07    0 5012 3.1103e+07 2.6310e+07  15.4%     - 18125s
     0     0 2.6310e+07    0 5027 3.1103e+07 2.6310e+07  15.4%     - 18282s
     0     0 2.6311e+07    0 5081 3.1103e+07 2.6311e+07  15.4%     - 19112s
     0     0 2.6311e+07    0 5110 3.1103e+07 2.6311e+07  15.4%     - 19301s
     0     0 2.6311e+07    0 5060 3.1103e+07 2.6311e+07  15.4%     - 19893s
     0     0 2.6311e+07    0 5042 3.1103e+07 2.6311e+07  15.4%     - 20073s
     0     0 2.6311e+07    0 5003 3.1103e+07 2.6311e+07  15.4%     - 23254s
     0     0 2.6311e+07    0 5009 3.1103e+07 2.6311e+07  15.4%     - 23640s
     0     0 2.6395e+07    0 5146 3.1103e+07 2.6395e+07  15.1%     - 32936s
     0     0 2.6461e+07    0 5155 3.1103e+07 2.6461e+07  14.9%     - 41974s
     0     0 2.6461e+07    0 5190 3.1103e+07 2.6461e+07  14.9%     - 42034s
     0     0 2.6489e+07    0 5047 3.1103e+07 2.6489e+07  14.8%     - 44866s
     0     0 2.6489e+07    0 5063 3.1103e+07 2.6489e+07  14.8%     - 45236s
     0     0 2.6499e+07    0 5214 3.1103e+07 2.6499e+07  14.8%     - 50005s
     0     0 2.6499e+07    0 5183 3.1103e+07 2.6499e+07  14.8%     - 50021s
     0     0 2.6503e+07    0 5013 3.1103e+07 2.6503e+07  14.8%     - 52196s
     0     0 2.6503e+07    0 5049 3.1103e+07 2.6503e+07  14.8%     - 52485s
     0     0 2.6505e+07    0 5154 3.1103e+07 2.6505e+07  14.8%     - 54515s
     0     0 2.6505e+07    0 5232 3.1103e+07 2.6505e+07  14.8%     - 54794s
     0     0 2.6506e+07    0 5239 3.1103e+07 2.6506e+07  14.8%     - 56749s
     0     0 2.6506e+07    0 5160 3.1103e+07 2.6506e+07  14.8%     - 57812s
     0     0 2.6506e+07    0 5168 3.1103e+07 2.6506e+07  14.8%     - 60240s
     0     0 2.6507e+07    0 5275 3.1103e+07 2.6507e+07  14.8%     - 61924s
     0     0 2.6573e+07    0 4947 3.1103e+07 2.6573e+07  14.6%     - 65943s
     0     0 2.6573e+07    0 4945 3.1103e+07 2.6573e+07  14.6%     - 66328s

Cutting planes:
  Gomory: 1
  Cover: 3
  Implied bound: 942
  Clique: 5
  MIR: 539
  Flow cover: 3112
  RLT: 414
  Relax-and-lift: 446

Explored 1 nodes (4179441 simplex iterations) in 67181.10 seconds (68020.65 work units)
Thread count was 4 (of 128 available processors)

Solution count 1: 3.11029e+07 

Time limit reached
Best objective 3.110289500000e+07, best bound 2.657275489801e+07, gap 14.5650%

Solving took 	18:39:41.122
####################################################################################################
####################################################################################################
####################################################################################################
Reached timelimit, but could find a feasible solution
####################################################################################################
Description                          Value
----------------------------  ------------
Objective (min)               31,102,895.0
Cost sailing                  16,113,269.0
Cost port visits              15,740,337.0
Cost transshipment (demands)   1,245,763.0
Cost transshipment (empties)     261,136.0
Penalty delayed demands        1,890,041.0
Revenue Empties                4,368,231.0
Penalty rejected demands         220,580.0
Rejected demands (%)                  0.32
Omitted ports (%)                      0.0
Gap (%)                              14.57
####################################################################################################
Export solution
####################################################################################################
Overall time 	18:39:52.948

real	1119m54.862s
user	1119m7.802s
sys	0m39.241s
finished at Sat Mar 18 06:58:45 CET 2023
